c t pwmc
c file mc2023_track4_035.cnf
p cnf 54 90
c p show 2 6 7 8 9 10 12 16 17 21 22 24 25 26 27 29 30 31 32 33 35 37 41 43 44 50 51 52 53 0
1 0
-43 0
-37 0
-31 0
-25 0
-19 0
-49 0
34 32 36 35 33 0
40 38 42 41 39 0
48 46 45 47 44 0
54 52 50 53 51 0
29 27 26 28 0
22 21 20 0
13 15 14 0
-10 -40 0
-11 -41 0
-12 -42 0
-26 -2 0
-27 -3 0
-28 -4 0
-29 -5 0
-30 -6 0
-20 -38 0
-9 -39 0
-8 -38 0
-18 -24 0
-17 -23 0
-22 -16 0
-21 -15 0
-20 -14 0
-6 -36 0
-5 -35 0
-4 -34 0
-36 -54 0
-35 -53 0
-34 -52 0
-33 -51 0
-32 -50 0
-54 -6 0
-53 -5 0
-52 -4 0
-51 -3 0
-50 -2 0
-6 -24 0
-5 -23 0
-22 -4 0
-21 -3 0
-20 -2 0
-42 -24 0
-41 -23 0
-22 -40 0
-21 -39 0
-22 -52 0
-21 -51 0
-20 -50 0
-48 -6 0
-47 -5 0
-46 -4 0
-45 -3 0
-44 -2 0
-36 -42 0
-35 -41 0
-34 -40 0
-33 -39 0
-38 -32 0
-30 -48 0
-29 -47 0
-28 -46 0
-27 -45 0
-26 -44 0
7 8 0
-3 -33 0
-32 -2 0
-18 -36 0
-17 -35 0
-16 -34 0
-15 -33 0
-14 -32 0
-12 -54 0
-11 -53 0
-10 -52 0
-9 -51 0
-8 -50 0
-42 -6 0
-41 -5 0
-40 -4 0
-39 -3 0
-2 -38 0
-24 -54 0
-23 -53 0
c p weight 2 0.36238793 0
c p weight -2 0.63761207 0
c p weight 6 0.64414603 0
c p weight -6 0.35585397 0
c p weight 7 0.67022722 0
c p weight -7 0.32977278 0
c p weight 8 0.37418547 0
c p weight -8 0.62581453 0
c p weight 9 0.46240848 0
c p weight -9 0.53759152 0
c p weight 10 0.78272215 0
c p weight -10 0.21727785 0
c p weight 12 0.23150875 0
c p weight -12 0.76849125 0
c p weight 16 0.29459341 0
c p weight -16 0.70540659 0
c p weight 17 0.52245975 0
c p weight -17 0.47754025 0
c p weight 21 0.66191853 0
c p weight -21 0.33808147 0
c p weight 22 0.37474364 0
c p weight -22 0.62525636 0
c p weight 24 0.49153693 0
c p weight -24 0.50846307 0
c p weight 25 0.61836572 0
c p weight -25 0.38163428 0
c p weight 26 0.46504004 0
c p weight -26 0.53495996 0
c p weight 27 0.25288953 0
c p weight -27 0.74711047 0
c p weight 29 0.24713560 0
c p weight -29 0.75286440 0
c p weight 30 0.35279660 0
c p weight -30 0.64720340 0
c p weight 31 0.72219663 0
c p weight -31 0.27780337 0
c p weight 32 0.74994491 0
c p weight -32 0.25005509 0
c p weight 33 0.70436018 0
c p weight -33 0.29563982 0
c p weight 35 0.57286811 0
c p weight -35 0.42713189 0
c p weight 37 0.73380690 0
c p weight -37 0.26619310 0
c p weight 41 0.42818912 0
c p weight -41 0.57181088 0
c p weight 43 0.55105877 0
c p weight -43 0.44894123 0
c p weight 44 0.70026114 0
c p weight -44 0.29973886 0
c p weight 50 0.68587008 0
c p weight -50 0.31412992 0
c p weight 51 0.69093060 0
c p weight -51 0.30906940 0
c p weight 52 0.26854110 0
c p weight -52 0.73145890 0
c p weight 53 0.79412183 0
c p weight -53 0.20587817 0
